Route #1: 1 6 7 20 9 8 4 5 31 25 10 1 
Route #2: 1 1 14 13 15 18 1 
Route #3: 1 32 16 12 1 
Route #4: 1 19 17 21 27 28 1 
Route #5: 1 11 29 2 3 26 23 1 
Route #6: 1 22 24 30 1 

Cost 1121.81
Time 0.1628


 * Another infos *

 Iterations: 33 Time: 0.1628 sec - 0.0027 min - 0.0000 horas
0.0000 h 0.0027 min
Problem dimension: 33
